language Essence 1.3

letting class be function(1 --> 2, 2 --> 2, 3 --> 2, 4 --> 2, 5 --> 2, 6 --> 1, 7 --> 2, 8 --> 1, 9 --> 1)
letting deck_length be 46
letting deck_width be 18
letting length be function(1 --> 4, 2 --> 5, 3 --> 12, 4 --> 5, 5 --> 1, 6 --> 2, 7 --> 1, 8 --> 1, 9 --> 1)
letting n_classes be 2
letting n_containers be 9
letting separation be function()
letting width be function(1 --> 11, 2 --> 2, 3 --> 7, 4 --> 12, 5 --> 10, 6 --> 2, 7 --> 1, 8 --> 1, 9 --> 1)
